files/upTests/__failed/partial-function/0005.eprime
language ESSENCE' 1.0

find f_FunctionAsReln_RelationIntMatrix2:
        matrix indexed by [int(1..9), int(1..9)] of bool
such that
    (sum v__0 : int(1..9)
         . (sum v__1 : int(1..9) . f_FunctionAsReln_RelationIntMatrix2[v__0, v__1] * 1))
    =
    2,
    forAll v__0 : int(1..9)
        . (sum v__1 : int(1..9)
               . (sum v__2 : int(1..9)
                      . f_FunctionAsReln_RelationIntMatrix2[v__1, v__2] * (v__0 = v__1)))
          <=
          1
